MARKOV
150
2 2 2 2 2 2 2 2 2 2 2 2 2 2 2 2 2 2 2 2 2 2 2 2 2 2 2 2 2 2 2 2 2 2 2 2 2 2 2 2 2 2 2 2 2 2 2 2 2 2 2 2 2 2 2 2 2 2 2 2 2 2 2 2 2 2 2 2 2 2 2 2 2 2 2 2 2 2 2 2 2 2 2 2 2 2 2 2 2 2 2 2 2 2 2 2 2 2 2 2 2 2 2 2 2 2 2 2 2 2 2 2 2 2 2 2 2 2 2 2 2 2 2 2 2 2 2 2 2 2 2 2 2 2 2 2 2 2 2 2 2 2 2 2 2 2 2 2 2 6

150
1 0
4 1 16 72 73
5 2 34 72 79 106
4 3 22 53 108
4 4 39 82 107
4 5 18 57 69
3 6 74 92
2 7 105
1 8
3 10 14 52
4 11 45 58 81
2 12 111
1 13
1 14
8 3 15 26 38 66 79 92 95
1 16
2 17 79
7 3 7 18 48 55 87 107
3 19 27 68
4 11 20 27 92
3 21 25 109
2 22 87
3 23 24 114
2 24 77
4 19 25 73 101
1 26
1 27
3 27 28 40
4 24 29 30 105
4 7 14 30 83
5 1 32 51 78 102
2 33 112
3 34 83 114
2 29 35
3 37 40 108
1 38
3 15 39 40
3 19 40 90
4 17 23 41 96
3 2 27 42
2 43 101
1 44
3 45 66 79
3 46 51 92
2 47 108
1 48
4 9 49 50 77
3 22 36 50
1 51
1 52
3 53 71 113
3 54 86 89
2 47 55
3 56 62 76
4 25 57 64 103
3 37 58 74
1 59
2 42 60
3 1 49 62
3 31 63 77
6 52 58 64 90 96 112
2 22 65
4 35 50 66 97
6 8 63 67 81 82 114
2 26 68
2 69 77
7 24 28 46 70 76 79 84
1 71
3 45 72 87
1 73
2 26 74
5 65 75 90 93 112
3 47 54 76
2 68 77
3 0 68 79
2 80 109
7 32 49 81 95 105 106 110
3 73 82 83
2 63 83
5 9 12 44 84 94
4 3 12 63 85
3 86 104 109
4 14 27 87 109
3 33 74 88
1 89
2 35 90
2 23 91
4 73 87 92 101
3 68 87 93
3 43 67 94
2 89 95
3 7 59 96
2 97 109
4 20 37 98 103
3 7 71 99
4 22 75 97 101
3 16 34 102
4 50 55 78 103
3 6 60 104
3 13 26 105
4 9 45 58 106
5 23 28 52 84 107
2 16 108
3 51 59 109
2 68 110
2 98 111
4 16 77 89 112
5 2 51 90 95 113
2 0 114
5 9 59 83 110 115
5 9 59 83 110 116
5 9 59 83 110 117
5 9 59 83 110 118
5 9 59 83 110 119
5 9 59 83 110 120
5 9 59 83 110 121
5 9 59 83 110 122
3 29 36 123
3 29 36 124
6 19 56 61 64 104 125
6 19 56 61 64 104 126
6 19 56 61 64 104 127
6 19 56 61 64 104 128
6 19 56 61 64 104 129
6 19 56 61 64 104 130
6 19 56 61 64 104 131
6 19 56 61 64 104 132
6 19 56 61 64 104 133
6 19 56 61 64 104 134
6 19 56 61 64 104 135
6 19 56 61 64 104 136
6 19 56 61 64 104 137
6 19 56 61 64 104 138
6 19 56 61 64 104 139
6 19 56 61 64 104 140
4 33 41 78 141
4 33 41 78 142
4 33 41 78 143
4 33 41 78 144
4 21 60 100 145
4 21 60 100 146
4 21 60 100 147
4 21 60 100 148
4 31 79 80 149
8 9 13 38 59 72 80 86 149
8 16 29 36 48 52 80 84 149
6 27 35 61 63 111 149
3 78 102 149
7 2 21 40 75 100 109 149
1 149

2 0.505488 0.494512
16 0.659963 0.082228 0.503164 0.565477 0.515792 0.356804 0.521829 0.044075 0.340037 0.917772 0.496836 0.434523 0.484208 0.643196 0.478171 0.955925
32 0.155963 0.633642 0.3702 0.477275 0.871298 0.198619 0.788738 0.1315 0.496738 0.138685 0.13475 0.268079 0.511904 0.470939 0.202189 0.854683 0.844037 0.366358 0.6298 0.522725 0.128702 0.801381 0.211262 0.8685 0.503262 0.861315 0.86525 0.731921 0.488096 0.529061 0.797811 0.145317
16 0.517451 0.78205 0.593461 0.549328 0.696318 0.71276 0.283629 0.665012 0.482549 0.21795 0.406539 0.450672 0.303682 0.28724 0.716371 0.334988
16 0.228987 0.632512 0.43502 0.834979 0.321291 0.466556 0.442965 0.940013 0.771013 0.367488 0.56498 0.165021 0.678709 0.533444 0.557035 0.059987
16 0.57693 0.662844 0.935881 0.451572 0.046384 0.668626 0.26106 0.696797 0.42307 0.337156 0.064119 0.548428 0.953616 0.331374 0.73894 0.303203
8 0.860484 0.6306 0.625521 0.79874 0.139516 0.3694 0.374479 0.20126
4 0.206228 0.150766 0.793772 0.849234
2 0.452987 0.547013
8 0.787203 0.602874 0.62241 0.023946 0.212797 0.397126 0.37759 0.976054
16 0.831357 0.487712 0.497204 0.772746 0.853713 0.562543 0.63033 0.548106 0.168643 0.512288 0.502796 0.227254 0.146287 0.437457 0.36967 0.451894
4 0.260341 0.309853 0.739659 0.690147
2 0.622704 0.377296
2 0.514448 0.485552
256 0.563577 0.381365 0.555649 0.241598 0.623956 0.921175 0.466999 0.680692 0.141939 0.644583 0.749136 0.327296 0.494662 0.106109 0.93574 0.675681 0.099815 0.597211 0.034758 0.411902 0.493036 0.806352 0.192147 0.86161 0.349828 0.286661 0.538444 0.414953 0.633242 0.565697 0.468967 0.446226 0.412402 0.658532 0.217888 0.48305 0.639497 0.253527 0.330571 0.315315 0.122485 0.537267 0.051512 0.778129 0.499914 0.589378 0.658805 0.402146 0.465657 0.687218 0.467532 0.392019 0.757037 0.15079 0.335924 0.237932 0.597478 0.180968 0.689362 0.190125 0.348732 0.407087 0.201506 0.523454 0.436423 0.618635 0.444351 0.758402 0.376044 0.078825 0.533001 0.319308 0.858061 0.355417 0.250864 0.672704 0.505338 0.893891 0.06426 0.324319 0.900185 0.402789 0.965242 0.588098 0.506964 0.193648 0.807853 0.13839 0.650172 0.713339 0.461556 0.585047 0.366758 0.434303 0.531033 0.553774 0.587598 0.341468 0.782112 0.51695 0.360503 0.746473 0.669429 0.684685 0.877515 0.462733 0.948488 0.221871 0.500086 0.410622 0.341195 0.597854 0.534343 0.312782 0.532468 0.607981 0.242963 0.84921 0.664076 0.762068 0.402522 0.819032 0.310638 0.809875 0.651268 0.592913 0.798494 0.476546 0.788825 0.591189 0.815922 0.556992 0.851904 0.889367 0.026491 0.565915 0.707823 0.531363 0.114224 0.751978 0.461384 0.948438 0.549278 0.58578 0.766932 0.595554 0.477583 0.749445 0.36916 0.448673 0.042153 0.123324 0.539811 0.785014 0.565039 0.35633 0.427819 0.3247 0.225366 0.159244 0.512817 0.65488 0.603662 0.819292 0.612128 0.18958 0.014937 0.768555 0.651542 0.978164 0.237726 0.51865 0.53652 0.685845 0.844738 0.593873 0.409932 0.428125 0.901725 0.092413 0.500878 0.658218 0.574501 0.566557 0.302688 0.292993 0.02907 0.818284 0.34014 0.299781 0.477924 0.266901 0.211175 0.408811 0.184078 0.443008 0.148096 0.110633 0.973509 0.434085 0.292177 0.468637 0.885776 0.248022 0.538616 0.051562 0.450722 0.41422 0.233068 0.404446 0.522417 0.250555 0.63084 0.551327 0.957847 0.876676 0.460189 0.214986 0.434961 0.64367 0.572181 0.6753 0.774634 0.840756 0.487183 0.34512 0.396338 0.180708 0.387872 0.81042 0.985063 0.231445 0.348458 0.021836 0.762274 0.48135 0.46348 0.314155 0.155262 0.406127 0.590068 0.571875 0.098275 0.907587 0.499122 0.341782 0.425499 0.433443 0.697312 0.707007 0.97093 0.181716 0.65986 0.700219 0.522076 0.733099
2 0.780995 0.219005
4 0.581457 0.610821 0.418543 0.389179
128 0.520903 0.402197 0.742132 0.427218 0.565043 0.586081 0.457837 0.385211 0.291816 0.448707 0.600129 0.609207 0.278539 0.690446 0.325043 0.519185 0.479097 0.597803 0.257868 0.572782 0.434957 0.413919 0.542163 0.614789 0.708184 0.551293 0.399871 0.390793 0.721461 0.309554 0.674957 0.480815 0.61349 0.32876 0.337036 0.636119 0.571045 0.663559 0.816253 0.690468 0.597216 0.412649 0.46527 0.168982 0.136282 0.647428 0.467503 0.509023 0.38651 0.67124 0.662964 0.363881 0.428955 0.336441 0.183747 0.309532 0.402784 0.587351 0.53473 0.831018 0.863718 0.352572 0.532497 0.490977 0.451759 0.561505 0.682387 0.837079 0.705572 0.632833 0.885904 0.981862 0.978429 0.580955 0.579556 0.42099 0.513942 0.272953 0.11044 0.957903 0.548241 0.438495 0.317613 0.162921 0.294428 0.367167 0.114096 0.018138 0.021571 0.419045 0.420444 0.57901 0.486058 0.727047 0.88956 0.042097 0.840908 0.477424 0.745735 0.125244 0.920402 0.946672 0.099966 0.803914 0.669099 0.054726 0.52098 0.63997 0.892443 0.566857 0.383037 0.730031 0.159092 0.522576 0.254265 0.874756 0.079598 0.053328 0.900034 0.196086 0.330901 0.945274 0.47902 0.36003 0.107557 0.433143 0.616963 0.269969
8 0.358549 0.249652 0.239644 0.505313 0.641451 0.750348 0.760356 0.494687
16 0.52516 0.738516 0.799945 0.861323 0.47484 0.261484 0.200055 0.138677 0.948148 0.213181 0.23134 0.802797 0.051852 0.786819 0.76866 0.197203
8 0.170439 0.683068 0.449909 0.591654 0.829561 0.316932 0.550091 0.408346
4 0.526438 0.908795 0.473562 0.091205
8 0.625025 0.400836 0.646733 0.368143 0.374975 0.599164 0.353267 0.631857
4 0.249526 0.672711 0.750474 0.327289
16 0.273702 0.904225 0.699539 0.417895 0.726298 0.095775 0.300461 0.582105 0.192297 0.203289 0.831493 0.067731 0.807703 0.796711 0.168507 0.932269
2 0.597029 0.402971
2 0.816099 0.183901
8 0.615565 0.511107 0.384435 0.488893 0.223609 0.404394 0.776391 0.595606
16 0.970801 0.305373 0.348442 0.015566 0.029199 0.694627 0.651558 0.984434 0.374389 0.569599 0.049689 0.228809 0.625611 0.430401 0.950311 0.771191
16 0.109278 0.303524 0.890722 0.696476 0.368925 0.800177 0.631075 0.199823 0.200617 0.250581 0.799383 0.749419 0.33539 0.459709 0.66461 0.540291
32 0.514219 0.206326 0.360124 0.245378 0.74508 0.519117 0.606884 0.019817 0.485781 0.793674 0.639876 0.754622 0.25492 0.480883 0.393116 0.980183 0.904562 0.937638 0.530654 0.395215 0.878487 0.062503 0.203576 0.596128 0.095438 0.062362 0.469346 0.604785 0.121513 0.937497 0.796424 0.403872
4 0.091905 0.552327 0.908095 0.447673
8 0.12384 0.630546 0.006147 0.902365 0.87616 0.369454 0.993853 0.097635
4 0.392583 0.607417 0.318537 0.681463
8 0.360158 0.250842 0.501398 0.380624 0.639842 0.749158 0.498602 0.619376
2 0.888685 0.111315
8 0.34315 0.432766 0.65685 0.567234 0.13481 0.388341 0.86519 0.611659
8 0.585035 0.761848 0.414965 0.238152 0.480587 0.311215 0.519413 0.688785
16 0.870882 0.742222 0.129118 0.257778 0.215069 0.528744 0.784931 0.471256 0.548698 0.047555 0.451302 0.952445 0.524568 0.123209 0.475432 0.876791
8 0.615213 0.384787 0.775149 0.224851 0.308087 0.691913 0.222606 0.777394
4 0.701359 0.734324 0.298641 0.265676
2 0.639918 0.360082
8 0.93195 0.696173 0.431839 0.20441 0.06805 0.303827 0.568161 0.79559
8 0.788228 0.939544 0.552956 0.71029 0.211772 0.060456 0.447044 0.28971
4 0.304231 0.719494 0.695769 0.280506
2 0.418854 0.581146
16 0.683024 0.611732 0.485311 0.448108 0.316976 0.388268 0.514689 0.551892 0.552255 0.76919 0.17058 0.41383 0.447745 0.23081 0.82942 0.58617
8 0.645095 0.354905 0.096852 0.903148 0.559287 0.440713 0.360744 0.639256
2 0.624772 0.375228
2 0.800854 0.199146
8 0.427432 0.583107 0.455615 0.401915 0.572568 0.416893 0.544385 0.598085
8 0.668268 0.403171 0.178839 0.389764 0.331732 0.596829 0.821161 0.610236
4 0.424729 0.575271 0.313407 0.686593
8 0.383849 0.288086 0.476517 0.712092 0.616151 0.711914 0.523483 0.287908
16 0.694704 0.196193 0.521455 0.582406 0.305296 0.803807 0.478545 0.417594 0.342837 0.418 0.701886 0.402611 0.657163 0.582 0.298114 0.597389
8 0.554141 0.549689 0.445859 0.450311 0.782192 0.644944 0.217808 0.355056
2 0.871717 0.128283
4 0.411272 0.588728 0.296115 0.703885
8 0.370924 0.629076 0.587358 0.412642 0.807139 0.192861 0.327326 0.672674
8 0.44709 0.384357 0.55291 0.615643 0.831064 0.246171 0.168936 0.753829
64 0.709701 0.472124 0.596965 0.519021 0.588526 0.252025 0.590707 0.031842 0.290299 0.527876 0.403035 0.480979 0.411474 0.747975 0.409293 0.968158 0.069944 0.62793 0.526945 0.214844 0.454296 0.704421 0.720299 0.486806 0.930056 0.37207 0.473055 0.785156 0.545704 0.295579 0.279701 0.513194 0.365269 0.755471 0.589232 0.175719 0.634832 0.646071 0.549442 0.351182 0.634731 0.244529 0.410768 0.824281 0.365168 0.353929 0.450558 0.648818 0.409266 0.650887 0.13249 0.549663 0.537763 0.342896 0.788842 0.754378 0.590734 0.349113 0.86751 0.450337 0.462237 0.657104 0.211158 0.245622
4 0.543093 0.456907 0.490745 0.509255
16 0.87199 0.489941 0.12801 0.510059 0.909639 0.427845 0.090361 0.572155 0.668905 0.507732 0.331095 0.492268 0.606269 0.51343 0.393731 0.48657
64 0.23211 0.269977 0.917017 0.534284 0.923683 0.610598 0.056726 0.579213 0.76789 0.730023 0.082983 0.465716 0.076317 0.389402 0.943274 0.420787 0.65554 0.199345 0.805283 0.149367 0.244441 0.515564 0.081117 0.387682 0.34446 0.800655 0.194717 0.850633 0.755559 0.484436 0.918883 0.612318 0.308889 0.411576 0.389093 0.238473 0.815686 0.48126 0.447566 0.40339 0.691111 0.588424 0.610907 0.761527 0.184314 0.51874 0.552434 0.59661 0.601725 0.454729 0.75285 0.411691 0.323534 0.241214 0.461581 0.462387 0.398275 0.545271 0.24715 0.588309 0.676466 0.758786 0.538419 0.537613
4 0.385346 0.614654 0.72833 0.27167
4 0.408189 0.390782 0.591811 0.609218
128 0.129233 0.488524 0.5815 0.361674 0.462239 0.267699 0.079723 0.357696 0.870767 0.511476 0.4185 0.638326 0.537761 0.732301 0.920277 0.642304 0.202581 0.525755 0.501213 0.36367 0.04087 0.875718 0.288296 0.688225 0.797419 0.474245 0.498787 0.63633 0.95913 0.124282 0.711704 0.311775 0.010742 0.524224 0.087001 0.642595 0.45632 0.682575 0.225456 0.047964 0.989258 0.475776 0.912999 0.357405 0.54368 0.317425 0.774544 0.952036 0.644138 0.164659 0.420559 0.443445 0.779374 0.159762 0.717751 0.420713 0.355862 0.835341 0.579441 0.556555 0.220626 0.840238 0.282249 0.579287 0.67095 0.565689 0.531835 0.255834 0.924364 0.012737 0.429599 0.31058 0.32905 0.434311 0.468165 0.744166 0.075636 0.987263 0.570401 0.68942 0.237723 0.499221 0.861494 0.53004 0.061961 0.794405 0.544392 0.60397 0.762277 0.500779 0.138506 0.46996 0.938039 0.205595 0.455608 0.39603 0.380606 0.426922 0.41081 0.599533 0.664265 0.036587 0.100859 0.367999 0.619394 0.573078 0.58919 0.400467 0.335735 0.963413 0.899141 0.632001 0.741822 0.741008 0.053983 0.822974 0.367447 0.348812 0.326486 0.885796 0.258178 0.258992 0.946017 0.177026 0.632553 0.651188 0.673514 0.114204
2 0.935321 0.064679
8 0.95069 0.560439 0.04931 0.439561 0.437015 0.373795 0.562985 0.626205
2 0.578226 0.421774
4 0.190822 0.809178 0.546072 0.453928
32 0.194484 0.572858 0.381239 0.627204 0.717675 0.615843 0.471777 0.512628 0.805516 0.427142 0.618761 0.372796 0.282325 0.384157 0.528223 0.487372 0.578026 0.582188 0.421173 0.484441 0.637773 0.138183 0.588103 0.706469 0.421974 0.417812 0.578827 0.515559 0.362227 0.861817 0.411897 0.293531
8 0.417487 0.582513 0.276629 0.723371 0.849091 0.150909 0.632071 0.367929
4 0.774577 0.225423 0.102981 0.897019
8 0.335051 0.664949 0.692904 0.307096 0.454738 0.545262 0.112164 0.887836
4 0.119483 0.376738 0.880517 0.623262
128 0.832026 0.876268 0.75983 0.315876 0.928017 0.704004 0.953502 0.380909 0.631177 0.63216 0.616966 0.337894 0.449193 0.862401 0.684173 0.615821 0.167974 0.123732 0.24017 0.684124 0.071983 0.295996 0.046498 0.619091 0.368823 0.36784 0.383034 0.662106 0.550807 0.137599 0.315827 0.384179 0.916936 0.256825 0.199861 0.516323 0.336945 0.747409 0.664343 0.587924 0.215062 0.66162 0.270019 0.449302 0.110223 0.678914 0.496654 0.991768 0.083064 0.743175 0.800139 0.483677 0.663055 0.252591 0.335657 0.412076 0.784938 0.33838 0.729981 0.550698 0.889777 0.321086 0.503346 0.008232 0.753544 0.000779 0.29495 0.505335 0.828815 0.528261 0.75759 0.82836 0.831839 0.535099 0.70276 0.655086 0.633545 0.758645 0.623528 0.372966 0.246456 0.999221 0.70505 0.494665 0.171185 0.471739 0.24241 0.17164 0.168161 0.464901 0.29724 0.344914 0.366455 0.241355 0.376472 0.627034 0.854492 0.556359 0.536203 0.565594 0.077846 0.068827 0.41089 0.495141 0.226625 0.324846 0.236879 0.67786 0.628267 0.889073 0.763661 0.524442 0.145508 0.443641 0.463797 0.434406 0.922154 0.931173 0.58911 0.504859 0.773375 0.675154 0.763121 0.32214 0.371733 0.110927 0.236339 0.475558
8 0.081158 0.71654 0.918842 0.28346 0.147252 0.285863 0.852748 0.714137
4 0.29803 0.70197 0.688335 0.311665
32 0.289741 0.343904 0.710259 0.656096 0.457892 0.467072 0.542108 0.532928 0.654508 0.226465 0.345492 0.773535 0.140693 0.657446 0.859307 0.342554 0.591192 0.672067 0.408808 0.327933 0.538506 0.630151 0.461494 0.369849 0.296739 0.662051 0.703261 0.337949 0.945586 0.719549 0.054414 0.280451
16 0.546401 0.453599 0.22887 0.77113 0.21651 0.78349 0.665238 0.334762 0.072 0.928 0.682873 0.317127 0.67662 0.32338 0.704491 0.295509
8 0.55474 0.616954 0.668369 0.159936 0.44526 0.383046 0.331631 0.840064
16 0.5675 0.334822 0.4325 0.665178 0.640416 0.293923 0.359584 0.706077 0.375715 0.590973 0.624285 0.409027 0.890032 0.43169 0.109968 0.56831
8 0.239724 0.760276 0.867941 0.132059 0.471939 0.528061 0.158922 0.841078
2 0.756572 0.243428
4 0.292336 0.707664 0.504111 0.495889
4 0.55126 0.44874 0.572604 0.427396
16 0.773037 0.736299 0.226963 0.263701 0.442134 0.784061 0.557866 0.215939 0.603534 0.041362 0.396466 0.958638 0.16541 0.583963 0.83459 0.416037
8 0.312802 0.687198 0.846644 0.153356 0.943124 0.056876 0.090013 0.909987
8 0.51264 0.48736 0.495122 0.504878 0.352291 0.647709 0.707268 0.292732
4 0.829971 0.170029 0.277863 0.722137
8 0.052851 0.947149 0.513698 0.486302 0.228683 0.771317 0.879207 0.120793
4 0.283997 0.234216 0.716003 0.765784
16 0.444095 0.144474 0.555905 0.855526 0.015872 0.347581 0.984128 0.652419 0.942653 0.388038 0.057347 0.611962 0.600409 0.40254 0.399591 0.59746
8 0.782419 0.217581 0.891993 0.108007 0.141006 0.858994 0.605374 0.394626
16 0.688893 0.311107 0.396217 0.603783 0.530254 0.469746 0.920088 0.079912 0.10565 0.89435 0.415029 0.584971 0.974841 0.025159 0.396756 0.603244
8 0.653361 0.346639 0.4917 0.5083 0.536729 0.463271 0.674207 0.325793
16 0.460917 0.539083 0.190938 0.809062 0.57694 0.42306 0.412029 0.587971 0.31626 0.68374 0.416653 0.583347 0.656046 0.343954 0.387949 0.612051
8 0.416303 0.583697 0.533808 0.466192 0.299552 0.700448 0.948138 0.051862
8 0.113189 0.886811 0.644047 0.355953 0.33316 0.66684 0.629404 0.370596
16 0.887166 0.112834 0.673781 0.326219 0.080591 0.919409 0.483988 0.516012 0.813 0.187 0.564533 0.435467 0.842609 0.157391 0.562092 0.437908
32 0.974373 0.025627 0.893469 0.106531 0.712197 0.287803 0.479356 0.520644 0.663857 0.336143 0.044363 0.955637 0.659437 0.340563 0.229111 0.770889 0.349863 0.650137 0.787206 0.212794 0.66121 0.33879 0.386456 0.613544 0.633845 0.366155 0.594261 0.405739 0.470991 0.529009 0.212354 0.787646
4 0.205474 0.794526 0.906487 0.093513
8 0.064679 0.935321 0.399834 0.600166 0.429116 0.570884 0.801534 0.198466
4 0.06845 0.93155 0.701177 0.298823
4 0.384913 0.615087 0.61025 0.38975
16 0.205193 0.794807 0.749342 0.250658 0.219941 0.780059 0.495598 0.504402 0.423541 0.576459 0.485472 0.514528 0.577835 0.422165 0.671218 0.328782
32 0.386991 0.613009 0.133212 0.866788 0.121013 0.878987 0.06899 0.93101 0.713908 0.286092 0.498106 0.501894 0.502083 0.497917 0.234455 0.765545 0.216063 0.783937 0.05059 0.94941 0.646385 0.353615 0.458359 0.541641 0.432478 0.567522 0.266439 0.733561 0.745618 0.254382 0.8453 0.1547
4 0.500584 0.499416 0.68622 0.31378
32 1.0 0.0 1.0 1.0 1.0 1.0 1.0 1.0 1.0 1.0 1.0 1.0 1.0 1.0 1.0 1.0 0.0 1.0 1.0 1.0 1.0 1.0 1.0 1.0 1.0 1.0 1.0 1.0 1.0 1.0 1.0 1.0
32 1.0 1.0 1.0 1.0 1.0 0.0 1.0 1.0 1.0 1.0 1.0 1.0 1.0 1.0 1.0 1.0 1.0 1.0 1.0 1.0 0.0 1.0 1.0 1.0 1.0 1.0 1.0 1.0 1.0 1.0 1.0 1.0
32 1.0 1.0 1.0 0.0 1.0 1.0 1.0 1.0 1.0 1.0 1.0 1.0 1.0 1.0 1.0 1.0 1.0 1.0 0.0 1.0 1.0 1.0 1.0 1.0 1.0 1.0 1.0 1.0 1.0 1.0 1.0 1.0
32 1.0 1.0 1.0 1.0 1.0 1.0 1.0 0.0 1.0 1.0 1.0 1.0 1.0 1.0 1.0 1.0 1.0 1.0 1.0 1.0 1.0 1.0 0.0 1.0 1.0 1.0 1.0 1.0 1.0 1.0 1.0 1.0
32 1.0 1.0 1.0 1.0 1.0 1.0 1.0 1.0 1.0 0.0 1.0 1.0 1.0 1.0 1.0 1.0 1.0 1.0 1.0 1.0 1.0 1.0 1.0 1.0 0.0 1.0 1.0 1.0 1.0 1.0 1.0 1.0
32 1.0 1.0 1.0 1.0 1.0 1.0 1.0 1.0 1.0 1.0 1.0 1.0 1.0 0.0 1.0 1.0 1.0 1.0 1.0 1.0 1.0 1.0 1.0 1.0 1.0 1.0 1.0 1.0 0.0 1.0 1.0 1.0
32 1.0 1.0 1.0 1.0 1.0 1.0 1.0 1.0 1.0 1.0 1.0 0.0 1.0 1.0 1.0 1.0 1.0 1.0 1.0 1.0 1.0 1.0 1.0 1.0 1.0 1.0 0.0 1.0 1.0 1.0 1.0 1.0
32 1.0 1.0 1.0 1.0 1.0 1.0 1.0 1.0 1.0 1.0 1.0 1.0 1.0 1.0 1.0 0.0 1.0 1.0 1.0 1.0 1.0 1.0 1.0 1.0 1.0 1.0 1.0 1.0 1.0 1.0 0.0 1.0
8 1.0 0.0 0.0 1.0 1.0 1.0 1.0 1.0
8 1.0 1.0 1.0 1.0 1.0 0.0 0.0 1.0
64 1.0 0.0 1.0 1.0 1.0 1.0 1.0 1.0 0.0 1.0 1.0 1.0 1.0 1.0 1.0 1.0 1.0 1.0 1.0 1.0 1.0 1.0 1.0 1.0 1.0 1.0 1.0 1.0 1.0 1.0 1.0 1.0 1.0 1.0 1.0 1.0 1.0 1.0 1.0 1.0 1.0 1.0 1.0 1.0 1.0 1.0 1.0 1.0 1.0 1.0 1.0 1.0 1.0 1.0 1.0 1.0 1.0 1.0 1.0 1.0 1.0 1.0 1.0 1.0
64 1.0 1.0 1.0 1.0 1.0 1.0 1.0 1.0 1.0 1.0 1.0 1.0 1.0 1.0 1.0 1.0 1.0 0.0 1.0 1.0 1.0 1.0 1.0 1.0 0.0 1.0 1.0 1.0 1.0 1.0 1.0 1.0 1.0 1.0 1.0 1.0 1.0 1.0 1.0 1.0 1.0 1.0 1.0 1.0 1.0 1.0 1.0 1.0 1.0 1.0 1.0 1.0 1.0 1.0 1.0 1.0 1.0 1.0 1.0 1.0 1.0 1.0 1.0 1.0
64 1.0 1.0 1.0 0.0 1.0 1.0 1.0 1.0 1.0 1.0 0.0 1.0 1.0 1.0 1.0 1.0 1.0 1.0 1.0 1.0 1.0 1.0 1.0 1.0 1.0 1.0 1.0 1.0 1.0 1.0 1.0 1.0 1.0 1.0 1.0 1.0 1.0 1.0 1.0 1.0 1.0 1.0 1.0 1.0 1.0 1.0 1.0 1.0 1.0 1.0 1.0 1.0 1.0 1.0 1.0 1.0 1.0 1.0 1.0 1.0 1.0 1.0 1.0 1.0
64 1.0 1.0 1.0 1.0 1.0 1.0 1.0 1.0 1.0 1.0 1.0 1.0 1.0 1.0 1.0 1.0 1.0 1.0 1.0 0.0 1.0 1.0 1.0 1.0 1.0 1.0 0.0 1.0 1.0 1.0 1.0 1.0 1.0 1.0 1.0 1.0 1.0 1.0 1.0 1.0 1.0 1.0 1.0 1.0 1.0 1.0 1.0 1.0 1.0 1.0 1.0 1.0 1.0 1.0 1.0 1.0 1.0 1.0 1.0 1.0 1.0 1.0 1.0 1.0
64 1.0 1.0 1.0 1.0 1.0 1.0 1.0 1.0 1.0 1.0 1.0 1.0 1.0 1.0 1.0 1.0 1.0 1.0 1.0 1.0 1.0 1.0 1.0 1.0 1.0 1.0 1.0 1.0 1.0 1.0 1.0 1.0 1.0 0.0 1.0 1.0 1.0 1.0 1.0 1.0 0.0 1.0 1.0 1.0 1.0 1.0 1.0 1.0 1.0 1.0 1.0 1.0 1.0 1.0 1.0 1.0 1.0 1.0 1.0 1.0 1.0 1.0 1.0 1.0
64 1.0 1.0 1.0 1.0 1.0 1.0 1.0 1.0 1.0 1.0 1.0 1.0 1.0 1.0 1.0 1.0 1.0 1.0 1.0 1.0 1.0 1.0 1.0 1.0 1.0 1.0 1.0 1.0 1.0 1.0 1.0 1.0 1.0 1.0 1.0 1.0 1.0 1.0 1.0 1.0 1.0 1.0 1.0 1.0 1.0 1.0 1.0 1.0 1.0 0.0 1.0 1.0 1.0 1.0 1.0 1.0 0.0 1.0 1.0 1.0 1.0 1.0 1.0 1.0
64 1.0 1.0 1.0 1.0 1.0 1.0 1.0 1.0 1.0 1.0 1.0 1.0 1.0 1.0 1.0 1.0 1.0 1.0 1.0 1.0 1.0 1.0 1.0 1.0 1.0 1.0 1.0 1.0 1.0 1.0 1.0 1.0 1.0 1.0 1.0 0.0 1.0 1.0 1.0 1.0 1.0 1.0 0.0 1.0 1.0 1.0 1.0 1.0 1.0 1.0 1.0 1.0 1.0 1.0 1.0 1.0 1.0 1.0 1.0 1.0 1.0 1.0 1.0 1.0
64 1.0 1.0 1.0 1.0 1.0 1.0 1.0 1.0 1.0 1.0 1.0 1.0 1.0 1.0 1.0 1.0 1.0 1.0 1.0 1.0 1.0 1.0 1.0 1.0 1.0 1.0 1.0 1.0 1.0 1.0 1.0 1.0 1.0 1.0 1.0 1.0 1.0 1.0 1.0 1.0 1.0 1.0 1.0 1.0 1.0 1.0 1.0 1.0 1.0 1.0 1.0 0.0 1.0 1.0 1.0 1.0 1.0 1.0 0.0 1.0 1.0 1.0 1.0 1.0
64 1.0 1.0 1.0 1.0 1.0 0.0 1.0 1.0 1.0 1.0 1.0 1.0 0.0 1.0 1.0 1.0 1.0 1.0 1.0 1.0 1.0 1.0 1.0 1.0 1.0 1.0 1.0 1.0 1.0 1.0 1.0 1.0 1.0 1.0 1.0 1.0 1.0 1.0 1.0 1.0 1.0 1.0 1.0 1.0 1.0 1.0 1.0 1.0 1.0 1.0 1.0 1.0 1.0 1.0 1.0 1.0 1.0 1.0 1.0 1.0 1.0 1.0 1.0 1.0
64 1.0 1.0 1.0 1.0 1.0 1.0 1.0 1.0 1.0 1.0 1.0 1.0 1.0 1.0 1.0 1.0 1.0 1.0 1.0 1.0 1.0 0.0 1.0 1.0 1.0 1.0 1.0 1.0 0.0 1.0 1.0 1.0 1.0 1.0 1.0 1.0 1.0 1.0 1.0 1.0 1.0 1.0 1.0 1.0 1.0 1.0 1.0 1.0 1.0 1.0 1.0 1.0 1.0 1.0 1.0 1.0 1.0 1.0 1.0 1.0 1.0 1.0 1.0 1.0
64 1.0 1.0 1.0 1.0 1.0 1.0 1.0 0.0 1.0 1.0 1.0 1.0 1.0 1.0 0.0 1.0 1.0 1.0 1.0 1.0 1.0 1.0 1.0 1.0 1.0 1.0 1.0 1.0 1.0 1.0 1.0 1.0 1.0 1.0 1.0 1.0 1.0 1.0 1.0 1.0 1.0 1.0 1.0 1.0 1.0 1.0 1.0 1.0 1.0 1.0 1.0 1.0 1.0 1.0 1.0 1.0 1.0 1.0 1.0 1.0 1.0 1.0 1.0 1.0
64 1.0 1.0 1.0 1.0 1.0 1.0 1.0 1.0 1.0 1.0 1.0 1.0 1.0 1.0 1.0 1.0 1.0 1.0 1.0 1.0 1.0 1.0 1.0 0.0 1.0 1.0 1.0 1.0 1.0 1.0 0.0 1.0 1.0 1.0 1.0 1.0 1.0 1.0 1.0 1.0 1.0 1.0 1.0 1.0 1.0 1.0 1.0 1.0 1.0 1.0 1.0 1.0 1.0 1.0 1.0 1.0 1.0 1.0 1.0 1.0 1.0 1.0 1.0 1.0
64 1.0 1.0 1.0 1.0 1.0 1.0 1.0 1.0 1.0 1.0 1.0 1.0 1.0 1.0 1.0 1.0 1.0 1.0 1.0 1.0 1.0 1.0 1.0 1.0 1.0 1.0 1.0 1.0 1.0 1.0 1.0 1.0 1.0 1.0 1.0 1.0 1.0 0.0 1.0 1.0 1.0 1.0 1.0 1.0 0.0 1.0 1.0 1.0 1.0 1.0 1.0 1.0 1.0 1.0 1.0 1.0 1.0 1.0 1.0 1.0 1.0 1.0 1.0 1.0
64 1.0 1.0 1.0 1.0 1.0 1.0 1.0 1.0 1.0 1.0 1.0 1.0 1.0 1.0 1.0 1.0 1.0 1.0 1.0 1.0 1.0 1.0 1.0 1.0 1.0 1.0 1.0 1.0 1.0 1.0 1.0 1.0 1.0 1.0 1.0 1.0 1.0 1.0 1.0 1.0 1.0 1.0 1.0 1.0 1.0 1.0 1.0 1.0 1.0 1.0 1.0 1.0 1.0 0.0 1.0 1.0 1.0 1.0 1.0 1.0 0.0 1.0 1.0 1.0
64 1.0 1.0 1.0 1.0 1.0 1.0 1.0 1.0 1.0 1.0 1.0 1.0 1.0 1.0 1.0 1.0 1.0 1.0 1.0 1.0 1.0 1.0 1.0 1.0 1.0 1.0 1.0 1.0 1.0 1.0 1.0 1.0 1.0 1.0 1.0 1.0 1.0 1.0 1.0 0.0 1.0 1.0 1.0 1.0 1.0 1.0 0.0 1.0 1.0 1.0 1.0 1.0 1.0 1.0 1.0 1.0 1.0 1.0 1.0 1.0 1.0 1.0 1.0 1.0
64 1.0 1.0 1.0 1.0 1.0 1.0 1.0 1.0 1.0 1.0 1.0 1.0 1.0 1.0 1.0 1.0 1.0 1.0 1.0 1.0 1.0 1.0 1.0 1.0 1.0 1.0 1.0 1.0 1.0 1.0 1.0 1.0 1.0 1.0 1.0 1.0 1.0 1.0 1.0 1.0 1.0 1.0 1.0 1.0 1.0 1.0 1.0 1.0 1.0 1.0 1.0 1.0 1.0 1.0 1.0 0.0 1.0 1.0 1.0 1.0 1.0 1.0 0.0 1.0
16 1.0 0.0 0.0 1.0 1.0 1.0 1.0 1.0 1.0 1.0 1.0 1.0 1.0 1.0 1.0 1.0
16 1.0 1.0 1.0 1.0 1.0 0.0 0.0 1.0 1.0 1.0 1.0 1.0 1.0 1.0 1.0 1.0
16 1.0 1.0 1.0 1.0 1.0 1.0 1.0 1.0 1.0 0.0 0.0 1.0 1.0 1.0 1.0 1.0
16 1.0 1.0 1.0 1.0 1.0 1.0 1.0 1.0 1.0 1.0 1.0 1.0 1.0 0.0 0.0 1.0
16 1.0 0.0 0.0 1.0 1.0 1.0 1.0 1.0 1.0 1.0 1.0 1.0 1.0 1.0 1.0 1.0
16 1.0 1.0 1.0 1.0 1.0 1.0 1.0 1.0 1.0 0.0 0.0 1.0 1.0 1.0 1.0 1.0
16 1.0 1.0 1.0 1.0 1.0 0.0 0.0 1.0 1.0 1.0 1.0 1.0 1.0 1.0 1.0 1.0
16 1.0 1.0 1.0 1.0 1.0 1.0 1.0 1.0 1.0 1.0 1.0 1.0 1.0 0.0 0.0 1.0
48 5.0 1.0 1.0 1.0 1.0 1.0 3.0 1.0 1.0 1.0 1.0 1.0 7.0 1.0 1.0 1.0 1.0 1.0 1.0 1.0 1.0 1.0 1.0 1.0 1.0 1.0 1.0 1.0 1.0 1.0 4.0 1.0 1.0 1.0 1.0 1.0 5.0 1.0 1.0 1.0 1.0 1.0 8.0 1.0 1.0 1.0 1.0 1.0
768 1.0 5.0 1.0 1.0 1.0 1.0 1.0 3.0 1.0 1.0 1.0 1.0 1.0 7.0 1.0 1.0 1.0 1.0 1.0 8.0 1.0 1.0 1.0 1.0 1.0 0.0 1.0 1.0 1.0 1.0 1.0 8.0 1.0 1.0 1.0 1.0 1.0 3.0 1.0 1.0 1.0 1.0 1.0 2.0 1.0 1.0 1.0 1.0 1.0 7.0 1.0 1.0 1.0 1.0 1.0 4.0 1.0 1.0 1.0 1.0 1.0 1.0 1.0 1.0 1.0 1.0 1.0 0.0 1.0 1.0 1.0 1.0 1.0 1.0 1.0 1.0 1.0 1.0 1.0 1.0 1.0 1.0 1.0 1.0 1.0 3.0 1.0 1.0 1.0 1.0 1.0 5.0 1.0 1.0 1.0 1.0 1.0 7.0 1.0 1.0 1.0 1.0 1.0 6.0 1.0 1.0 1.0 1.0 1.0 9.0 1.0 1.0 1.0 1.0 1.0 3.0 1.0 1.0 1.0 1.0 1.0 8.0 1.0 1.0 1.0 1.0 1.0 2.0 1.0 1.0 1.0 1.0 1.0 9.0 1.0 1.0 1.0 1.0 1.0 2.0 1.0 1.0 1.0 1.0 1.0 9.0 1.0 1.0 1.0 1.0 1.0 8.0 1.0 1.0 1.0 1.0 1.0 6.0 1.0 1.0 1.0 1.0 1.0 1.0 1.0 1.0 1.0 1.0 1.0 1.0 1.0 1.0 1.0 1.0 1.0 9.0 1.0 1.0 1.0 1.0 1.0 9.0 1.0 1.0 1.0 1.0 1.0 7.0 1.0 1.0 1.0 1.0 1.0 4.0 1.0 1.0 1.0 1.0 1.0 2.0 1.0 1.0 1.0 1.0 1.0 3.0 1.0 1.0 1.0 1.0 1.0 2.0 1.0 1.0 1.0 1.0 1.0 6.0 1.0 1.0 1.0 1.0 1.0 6.0 1.0 1.0 1.0 1.0 1.0 0.0 1.0 1.0 1.0 1.0 1.0 6.0 1.0 1.0 1.0 1.0 1.0 7.0 1.0 1.0 1.0 1.0 1.0 4.0 1.0 1.0 1.0 1.0 1.0 5.0 1.0 1.0 1.0 1.0 1.0 1.0 1.0 1.0 1.0 1.0 1.0 7.0 1.0 1.0 1.0 1.0 1.0 5.0 1.0 1.0 1.0 1.0 1.0 2.0 1.0 1.0 1.0 1.0 1.0 6.0 1.0 1.0 1.0 1.0 1.0 7.0 1.0 1.0 1.0 1.0 1.0 0.0 1.0 1.0 1.0 1.0 1.0 8.0 1.0 1.0 1.0 1.0 1.0 5.0 1.0 1.0 1.0 1.0 1.0 4.0 1.0 1.0 1.0 1.0 1.0 0.0 1.0 1.0 1.0 1.0 1.0 7.0 1.0 1.0 1.0 1.0 1.0 4.0 1.0 1.0 1.0 1.0 1.0 0.0 1.0 1.0 1.0 1.0 1.0 9.0 1.0 1.0 1.0 1.0 1.0 9.0 1.0 1.0 1.0 1.0 1.0 5.0 1.0 1.0 1.0 1.0 1.0 8.0 1.0 1.0 1.0 1.0 1.0 8.0 1.0 1.0 1.0 1.0 1.0 9.0 1.0 1.0 1.0 1.0 1.0 4.0 1.0 1.0 1.0 1.0 1.0 3.0 1.0 1.0 1.0 1.0 1.0 3.0 1.0 1.0 1.0 1.0 1.0 4.0 1.0 1.0 1.0 1.0 1.0 3.0 1.0 1.0 1.0 1.0 1.0 4.0 1.0 1.0 1.0 1.0 1.0 8.0 1.0 1.0 1.0 1.0 1.0 7.0 1.0 1.0 1.0 1.0 1.0 3.0 1.0 1.0 1.0 1.0 1.0 4.0 1.0 1.0 1.0 1.0 1.0 3.0 1.0 1.0 1.0 1.0 1.0 6.0 1.0 1.0 1.0 1.0 1.0 7.0 1.0 1.0 1.0 1.0 1.0 3.0 1.0 1.0 1.0 1.0 1.0 3.0 1.0 1.0 1.0 1.0 1.0 6.0 1.0 1.0 1.0 1.0 1.0 5.0 1.0 1.0 1.0 1.0 1.0 3.0 1.0 1.0 1.0 1.0 1.0 6.0 1.0 1.0 1.0 1.0 1.0 3.0 1.0 1.0 1.0 1.0 1.0 1.0 1.0 1.0 1.0 1.0 1.0 7.0 1.0 1.0 1.0 1.0 1.0 8.0 1.0 1.0 1.0 1.0 1.0 4.0 1.0 1.0 1.0 1.0 1.0 6.0 1.0 1.0 1.0 1.0 1.0 7.0 1.0 1.0 1.0 1.0 1.0 4.0 1.0 1.0 1.0 1.0 1.0 1.0 1.0 1.0 1.0 1.0 1.0 1.0 1.0 1.0 1.0 1.0 1.0 2.0 1.0 1.0 1.0 1.0 1.0 0.0 1.0 1.0 1.0 1.0 1.0 4.0 1.0 1.0 1.0 1.0 1.0 8.0 1.0 1.0 1.0 1.0 1.0 7.0 1.0 1.0 1.0 1.0 1.0 4.0 1.0 1.0 1.0 1.0 1.0 4.0 1.0 1.0 1.0 1.0 1.0 6.0 1.0 1.0 1.0 1.0 1.0 4.0 1.0 1.0 1.0 1.0 1.0 6.0 1.0 1.0 1.0 1.0 1.0 3.0 1.0 1.0 1.0 1.0 1.0 6.0 1.0 1.0 1.0 1.0 1.0 8.0 1.0 1.0 1.0 1.0 1.0 5.0 1.0 1.0 1.0 1.0 1.0 8.0 1.0 1.0 1.0 1.0 1.0 3.0 1.0 1.0 1.0 1.0 1.0 5.0 1.0 1.0 1.0 1.0 1.0 0.0 1.0 1.0 1.0 1.0 1.0 0.0 1.0 1.0 1.0 1.0 1.0 7.0 1.0 1.0 1.0 1.0 1.0 9.0 1.0 1.0 1.0 1.0 1.0 9.0 1.0 1.0 1.0 1.0 1.0 5.0 1.0 1.0 1.0 1.0 1.0 3.0 1.0 1.0 1.0 1.0 1.0 5.0 1.0 1.0 1.0 1.0 1.0 0.0 1.0 1.0 1.0 1.0 1.0 1.0 1.0 1.0 1.0 1.0 1.0 5.0 1.0 1.0 1.0 1.0 1.0 3.0 1.0 1.0 1.0 1.0 1.0 0.0 1.0 1.0 1.0 1.0 1.0 6.0 1.0 1.0 1.0 1.0 1.0 3.0 1.0 1.0 1.0 1.0 1.0 0.0 1.0 1.0 1.0 1.0 1.0 7.0 1.0 1.0 1.0 1.0 1.0 8.0 1.0 1.0 1.0 1.0 1.0 7.0 1.0 1.0 1.0 1.0
768 1.0 1.0 8.0 1.0 1.0 1.0 1.0 1.0 2.0 1.0 1.0 1.0 1.0 1.0 5.0 1.0 1.0 1.0 1.0 1.0 6.0 1.0 1.0 1.0 1.0 1.0 9.0 1.0 1.0 1.0 1.0 1.0 7.0 1.0 1.0 1.0 1.0 1.0 8.0 1.0 1.0 1.0 1.0 1.0 7.0 1.0 1.0 1.0 1.0 1.0 5.0 1.0 1.0 1.0 1.0 1.0 9.0 1.0 1.0 1.0 1.0 1.0 8.0 1.0 1.0 1.0 1.0 1.0 5.0 1.0 1.0 1.0 1.0 1.0 5.0 1.0 1.0 1.0 1.0 1.0 9.0 1.0 1.0 1.0 1.0 1.0 8.0 1.0 1.0 1.0 1.0 1.0 5.0 1.0 1.0 1.0 1.0 1.0 3.0 1.0 1.0 1.0 1.0 1.0 2.0 1.0 1.0 1.0 1.0 1.0 1.0 1.0 1.0 1.0 1.0 1.0 5.0 1.0 1.0 1.0 1.0 1.0 3.0 1.0 1.0 1.0 1.0 1.0 9.0 1.0 1.0 1.0 1.0 1.0 6.0 1.0 1.0 1.0 1.0 1.0 8.0 1.0 1.0 1.0 1.0 1.0 1.0 1.0 1.0 1.0 1.0 1.0 0.0 1.0 1.0 1.0 1.0 1.0 4.0 1.0 1.0 1.0 1.0 1.0 1.0 1.0 1.0 1.0 1.0 1.0 6.0 1.0 1.0 1.0 1.0 1.0 4.0 1.0 1.0 1.0 1.0 1.0 9.0 1.0 1.0 1.0 1.0 1.0 6.0 1.0 1.0 1.0 1.0 1.0 7.0 1.0 1.0 1.0 1.0 1.0 5.0 1.0 1.0 1.0 1.0 1.0 6.0 1.0 1.0 1.0 1.0 1.0 4.0 1.0 1.0 1.0 1.0 1.0 7.0 1.0 1.0 1.0 1.0 1.0 5.0 1.0 1.0 1.0 1.0 1.0 8.0 1.0 1.0 1.0 1.0 1.0 9.0 1.0 1.0 1.0 1.0 1.0 6.0 1.0 1.0 1.0 1.0 1.0 3.0 1.0 1.0 1.0 1.0 1.0 2.0 1.0 1.0 1.0 1.0 1.0 8.0 1.0 1.0 1.0 1.0 1.0 6.0 1.0 1.0 1.0 1.0 1.0 0.0 1.0 1.0 1.0 1.0 1.0 7.0 1.0 1.0 1.0 1.0 1.0 5.0 1.0 1.0 1.0 1.0 1.0 7.0 1.0 1.0 1.0 1.0 1.0 3.0 1.0 1.0 1.0 1.0 1.0 2.0 1.0 1.0 1.0 1.0 1.0 2.0 1.0 1.0 1.0 1.0 1.0 5.0 1.0 1.0 1.0 1.0 1.0 4.0 1.0 1.0 1.0 1.0 1.0 7.0 1.0 1.0 1.0 1.0 1.0 8.0 1.0 1.0 1.0 1.0 1.0 8.0 1.0 1.0 1.0 1.0 1.0 7.0 1.0 1.0 1.0 1.0 1.0 0.0 1.0 1.0 1.0 1.0 1.0 6.0 1.0 1.0 1.0 1.0 1.0 7.0 1.0 1.0 1.0 1.0 1.0 1.0 1.0 1.0 1.0 1.0 1.0 1.0 1.0 1.0 1.0 1.0 1.0 2.0 1.0 1.0 1.0 1.0 1.0 4.0 1.0 1.0 1.0 1.0 1.0 7.0 1.0 1.0 1.0 1.0 1.0 5.0 1.0 1.0 1.0 1.0 1.0 0.0 1.0 1.0 1.0 1.0 1.0 5.0 1.0 1.0 1.0 1.0 1.0 6.0 1.0 1.0 1.0 1.0 1.0 2.0 1.0 1.0 1.0 1.0 1.0 1.0 1.0 1.0 1.0 1.0 1.0 0.0 1.0 1.0 1.0 1.0 1.0 6.0 1.0 1.0 1.0 1.0 1.0 7.0 1.0 1.0 1.0 1.0 1.0 1.0 1.0 1.0 1.0 1.0 1.0 5.0 1.0 1.0 1.0 1.0 1.0 2.0 1.0 1.0 1.0 1.0 1.0 4.0 1.0 1.0 1.0 1.0 1.0 5.0 1.0 1.0 1.0 1.0 1.0 4.0 1.0 1.0 1.0 1.0 1.0 8.0 1.0 1.0 1.0 1.0 1.0 4.0 1.0 1.0 1.0 1.0 1.0 8.0 1.0 1.0 1.0 1.0 1.0 8.0 1.0 1.0 1.0 1.0 1.0 0.0 1.0 1.0 1.0 1.0 1.0 8.0 1.0 1.0 1.0 1.0 1.0 5.0 1.0 1.0 1.0 1.0 1.0 6.0 1.0 1.0 1.0 1.0 1.0 2.0 1.0 1.0 1.0 1.0 1.0 4.0 1.0 1.0 1.0 1.0 1.0 5.0 1.0 1.0 1.0 1.0 1.0 3.0 1.0 1.0 1.0 1.0 1.0 0.0 1.0 1.0 1.0 1.0 1.0 7.0 1.0 1.0 1.0 1.0 1.0 4.0 1.0 1.0 1.0 1.0 1.0 1.0 1.0 1.0 1.0 1.0 1.0 8.0 1.0 1.0 1.0 1.0 1.0 1.0 1.0 1.0 1.0 1.0 1.0 8.0 1.0 1.0 1.0 1.0 1.0 9.0 1.0 1.0 1.0 1.0 1.0 4.0 1.0 1.0 1.0 1.0 1.0 2.0 1.0 1.0 1.0 1.0 1.0 0.0 1.0 1.0 1.0 1.0 1.0 2.0 1.0 1.0 1.0 1.0 1.0 0.0 1.0 1.0 1.0 1.0 1.0 0.0 1.0 1.0 1.0 1.0 1.0 7.0 1.0 1.0 1.0 1.0 1.0 6.0 1.0 1.0 1.0 1.0 1.0 4.0 1.0 1.0 1.0 1.0 1.0 8.0 1.0 1.0 1.0 1.0 1.0 4.0 1.0 1.0 1.0 1.0 1.0 0.0 1.0 1.0 1.0 1.0 1.0 0.0 1.0 1.0 1.0 1.0 1.0 1.0 1.0 1.0 1.0 1.0 1.0 8.0 1.0 1.0 1.0 1.0 1.0 9.0 1.0 1.0 1.0 1.0 1.0 3.0 1.0 1.0 1.0 1.0 1.0 0.0 1.0 1.0 1.0 1.0 1.0 3.0 1.0 1.0 1.0 1.0 1.0 3.0 1.0 1.0 1.0 1.0 1.0 2.0 1.0 1.0 1.0 1.0 1.0 6.0 1.0 1.0 1.0 1.0 1.0 4.0 1.0 1.0 1.0 1.0 1.0 4.0 1.0 1.0 1.0 1.0 1.0 3.0 1.0 1.0 1.0 1.0 1.0 6.0 1.0 1.0 1.0 1.0 1.0 9.0 1.0 1.0 1.0
192 1.0 1.0 1.0 0.0 1.0 1.0 1.0 1.0 1.0 8.0 1.0 1.0 1.0 1.0 1.0 9.0 1.0 1.0 1.0 1.0 1.0 3.0 1.0 1.0 1.0 1.0 1.0 5.0 1.0 1.0 1.0 1.0 1.0 2.0 1.0 1.0 1.0 1.0 1.0 3.0 1.0 1.0 1.0 1.0 1.0 6.0 1.0 1.0 1.0 1.0 1.0 8.0 1.0 1.0 1.0 1.0 1.0 1.0 1.0 1.0 1.0 1.0 1.0 7.0 1.0 1.0 1.0 1.0 1.0 7.0 1.0 1.0 1.0 1.0 1.0 0.0 1.0 1.0 1.0 1.0 1.0 4.0 1.0 1.0 1.0 1.0 1.0 0.0 1.0 1.0 1.0 1.0 1.0 0.0 1.0 1.0 1.0 1.0 1.0 9.0 1.0 1.0 1.0 1.0 1.0 1.0 1.0 1.0 1.0 1.0 1.0 3.0 1.0 1.0 1.0 1.0 1.0 3.0 1.0 1.0 1.0 1.0 1.0 3.0 1.0 1.0 1.0 1.0 1.0 0.0 1.0 1.0 1.0 1.0 1.0 6.0 1.0 1.0 1.0 1.0 1.0 4.0 1.0 1.0 1.0 1.0 1.0 5.0 1.0 1.0 1.0 1.0 1.0 2.0 1.0 1.0 1.0 1.0 1.0 8.0 1.0 1.0 1.0 1.0 1.0 9.0 1.0 1.0 1.0 1.0 1.0 0.0 1.0 1.0 1.0 1.0 1.0 9.0 1.0 1.0 1.0 1.0 1.0 9.0 1.0 1.0 1.0 1.0 1.0 2.0 1.0 1.0
24 1.0 1.0 1.0 1.0 5.0 1.0 1.0 1.0 1.0 1.0 1.0 1.0 1.0 1.0 1.0 1.0 2.0 1.0 1.0 1.0 1.0 1.0 5.0 1.0
384 1.0 1.0 1.0 1.0 1.0 3.0 1.0 1.0 1.0 1.0 1.0 4.0 1.0 1.0 1.0 1.0 1.0 8.0 1.0 1.0 1.0 1.0 1.0 1.0 1.0 1.0 1.0 1.0 1.0 8.0 1.0 1.0 1.0 1.0 1.0 7.0 1.0 1.0 1.0 1.0 1.0 2.0 1.0 1.0 1.0 1.0 1.0 9.0 1.0 1.0 1.0 1.0 1.0 3.0 1.0 1.0 1.0 1.0 1.0 4.0 1.0 1.0 1.0 1.0 1.0 3.0 1.0 1.0 1.0 1.0 1.0 6.0 1.0 1.0 1.0 1.0 1.0 0.0 1.0 1.0 1.0 1.0 1.0 6.0 1.0 1.0 1.0 1.0 1.0 0.0 1.0 1.0 1.0 1.0 1.0 7.0 1.0 1.0 1.0 1.0 1.0 3.0 1.0 1.0 1.0 1.0 1.0 9.0 1.0 1.0 1.0 1.0 1.0 7.0 1.0 1.0 1.0 1.0 1.0 8.0 1.0 1.0 1.0 1.0 1.0 6.0 1.0 1.0 1.0 1.0 1.0 0.0 1.0 1.0 1.0 1.0 1.0 1.0 1.0 1.0 1.0 1.0 1.0 1.0 1.0 1.0 1.0 1.0 1.0 5.0 1.0 1.0 1.0 1.0 1.0 6.0 1.0 1.0 1.0 1.0 1.0 3.0 1.0 1.0 1.0 1.0 1.0 1.0 1.0 1.0 1.0 1.0 1.0 2.0 1.0 1.0 1.0 1.0 1.0 8.0 1.0 1.0 1.0 1.0 1.0 0.0 1.0 1.0 1.0 1.0 1.0 4.0 1.0 1.0 1.0 1.0 1.0 8.0 1.0 1.0 1.0 1.0 1.0 0.0 1.0 1.0 1.0 1.0 1.0 2.0 1.0 1.0 1.0 1.0 1.0 9.0 1.0 1.0 1.0 1.0 1.0 0.0 1.0 1.0 1.0 1.0 1.0 8.0 1.0 1.0 1.0 1.0 1.0 3.0 1.0 1.0 1.0 1.0 1.0 7.0 1.0 1.0 1.0 1.0 1.0 7.0 1.0 1.0 1.0 1.0 1.0 0.0 1.0 1.0 1.0 1.0 1.0 6.0 1.0 1.0 1.0 1.0 1.0 3.0 1.0 1.0 1.0 1.0 1.0 9.0 1.0 1.0 1.0 1.0 1.0 8.0 1.0 1.0 1.0 1.0 1.0 0.0 1.0 1.0 1.0 1.0 1.0 3.0 1.0 1.0 1.0 1.0 1.0 2.0 1.0 1.0 1.0 1.0 1.0 9.0 1.0 1.0 1.0 1.0 1.0 9.0 1.0 1.0 1.0 1.0 1.0 3.0 1.0 1.0 1.0 1.0 1.0 9.0 1.0 1.0 1.0 1.0 1.0 6.0 1.0 1.0 1.0 1.0 1.0 6.0 1.0 1.0 1.0 1.0 1.0 5.0 1.0 1.0 1.0 1.0 1.0 3.0 1.0 1.0 1.0 1.0 1.0 6.0 1.0 1.0 1.0 1.0 1.0 1.0 1.0 1.0 1.0 1.0 1.0 0.0 1.0 1.0 1.0 1.0 1.0 3.0 1.0 1.0 1.0 1.0 1.0 3.0 1.0 1.0 1.0 1.0 1.0 6.0 1.0 1.0 1.0 1.0 1.0 7.0
6 1.0 1.0 1.0 1.0 1.0 1.0
